(set-logic HORN)

(declare-fun $main_sum135 ((Array Int Int) (Array Int Int) (Array Int Int) (Array Int Int) (Array Int Int) (Array Int Int) Int Int Int (Array Int Int) (Array Int Int) (Array Int Int) (Array Int Int) (Array Int Int) (Array Int Int) Int Int Int) Bool)
(declare-fun $main_inv138 ((Array Int Int) (Array Int Int) (Array Int Int) (Array Int Int) (Array Int Int) (Array Int Int) Int Int Int) Bool)
(declare-fun $main_sum133 ((Array Int Int) (Array Int Int) (Array Int Int) (Array Int Int) (Array Int Int) (Array Int Int) Int Int Int (Array Int Int) (Array Int Int) (Array Int Int) (Array Int Int) (Array Int Int) (Array Int Int) Int Int Int) Bool)
(declare-fun $main_sum138 ((Array Int Int) (Array Int Int) (Array Int Int) (Array Int Int) (Array Int Int) (Array Int Int) Int Int Int (Array Int Int) (Array Int Int) (Array Int Int) (Array Int Int) (Array Int Int) (Array Int Int) Int Int Int) Bool)
(declare-fun __VERIFIER_assert (Int) Bool)
(declare-fun $__VERIFIER_assert_ERROR (Int Int) Bool)
(declare-fun $main_inv134 ((Array Int Int) (Array Int Int) (Array Int Int) (Array Int Int) (Array Int Int) (Array Int Int) Int Int Int) Bool)
(declare-fun $main_inv132 ((Array Int Int) (Array Int Int) (Array Int Int) (Array Int Int) (Array Int Int) (Array Int Int) Int Int Int) Bool)
(declare-fun $main_inv137 ((Array Int Int) (Array Int Int) (Array Int Int) (Array Int Int) (Array Int Int) (Array Int Int) Int Int Int) Bool)
(declare-fun $main_sum132 ((Array Int Int) (Array Int Int) (Array Int Int) (Array Int Int) (Array Int Int) (Array Int Int) Int Int Int (Array Int Int) (Array Int Int) (Array Int Int) (Array Int Int) (Array Int Int) (Array Int Int) Int Int Int) Bool)
(declare-fun $main_inv135 ((Array Int Int) (Array Int Int) (Array Int Int) (Array Int Int) (Array Int Int) (Array Int Int) Int Int Int) Bool)
(declare-fun $main_sum136 ((Array Int Int) (Array Int Int) (Array Int Int) (Array Int Int) (Array Int Int) (Array Int Int) Int Int Int (Array Int Int) (Array Int Int) (Array Int Int) (Array Int Int) (Array Int Int) (Array Int Int) Int Int Int) Bool)
(declare-fun $__VERIFIER_assert_pre (Int) Bool)
(declare-fun $main_inv133 ((Array Int Int) (Array Int Int) (Array Int Int) (Array Int Int) (Array Int Int) (Array Int Int) Int Int Int) Bool)
(declare-fun $__VERIFIER_assert_if52 (Int Int) Bool)
(declare-fun $main_sum137 ((Array Int Int) (Array Int Int) (Array Int Int) (Array Int Int) (Array Int Int) (Array Int Int) Int Int Int (Array Int Int) (Array Int Int) (Array Int Int) (Array Int Int) (Array Int Int) (Array Int Int) Int Int Int) Bool)
(declare-fun $main_sum134 ((Array Int Int) (Array Int Int) (Array Int Int) (Array Int Int) (Array Int Int) (Array Int Int) Int Int Int (Array Int Int) (Array Int Int) (Array Int Int) (Array Int Int) (Array Int Int) (Array Int Int) Int Int Int) Bool)
(declare-fun $main_inv136 ((Array Int Int) (Array Int Int) (Array Int Int) (Array Int Int) (Array Int Int) (Array Int Int) Int Int Int) Bool)

; label ERROR
(assert
  (forall ((cond Int))
    (=> (and (= cond 0)
             ($__VERIFIER_assert_pre cond))
        ($__VERIFIER_assert_ERROR cond cond))))

; error
(assert
  (forall ((cond Int) (cond2887 Int))
    (=> (and ($__VERIFIER_assert_ERROR cond cond2887))
        false)))

; if else
(assert
  (forall ((cond Int))
    (=> (and (not (= cond 0))
             ($__VERIFIER_assert_pre cond))
        ($__VERIFIER_assert_if52 cond cond))))

; post __VERIFIER_assert
(assert
  (forall ((cond2888 Int) (cond Int))
    (=> (and ($__VERIFIER_assert_if52 cond cond2888))
        (__VERIFIER_assert cond2888))))

; loop entry $main_inv132
(assert
  (forall (($x223 Int) ($a6220 (Array Int Int)) ($a2216 (Array Int Int)) ($i222 Int) ($a5219 (Array Int Int)) ($a4218 (Array Int Int)) ($a1215 (Array Int Int)) ($a3217 (Array Int Int)))
        ($main_inv132 $a1215 $a2216 $a3217 $a4218 $a5219 $a6220 0 $i222 $x223)))

; loop term $main_sum132
(assert
  (forall (($a52192893 (Array Int Int)) ($a2212895 Int) ($a42182892 (Array Int Int)) ($a62202894 (Array Int Int)) ($a22162890 (Array Int Int)) ($a12152889 (Array Int Int)) ($a32172891 (Array Int Int)) ($i2222896 Int) ($x2232897 Int))
    (=> (and (not (< $a2212895 100000)))
        ($main_sum132 $a12152889 $a22162890 $a32172891 $a42182892 $a52192893 $a62202894 $a2212895 $i2222896 $x2232897 $a12152889 $a22162890 $a32172891 $a42182892 $a52192893 $a62202894 $a2212895 $i2222896 $x2232897))))

; forwards $main_inv132
(assert
  (forall (($a52192893 (Array Int Int)) ($int2899 Int) ($int2898 Int) ($a2212895 Int) ($a42182892 (Array Int Int)) ($a62202894 (Array Int Int)) ($a22162890 (Array Int Int)) ($a12152889 (Array Int Int)) ($a32172891 (Array Int Int)) ($i2222896 Int) ($x2232897 Int))
    (=> (and (<= (- 2147483648) $int2899)
             (<= $int2899 2147483647)
             (<= (- 2147483648) $int2898)
             (<= $int2898 2147483647)
             (< $a2212895 100000)
             ($main_inv132 $a12152889 $a22162890 $a32172891 $a42182892 $a52192893 $a62202894 $a2212895 $i2222896 $x2232897))
        ($main_inv132 (store $a12152889 $a2212895 $int2898) $a22162890 $a32172891 $a42182892 (store $a52192893 $a2212895 $int2899) $a62202894 (+ $a2212895 1) $i2222896 $x2232897))))

; backwards $main_sum132
(assert
  (forall (($a52192893 (Array Int Int)) ($i2222907 Int) ($a2212895 Int) ($a62202894 (Array Int Int)) ($a22162890 (Array Int Int)) ($a12152889 (Array Int Int)) ($a32172891 (Array Int Int)) ($a2212906 Int) ($a32172902 (Array Int Int)) ($int2899 Int) ($i2222896 Int) ($x2232897 Int) ($int2898 Int) ($a52192904 (Array Int Int)) ($a22162901 (Array Int Int)) ($a42182892 (Array Int Int)) ($a62202905 (Array Int Int)) ($a42182903 (Array Int Int)) ($x2232908 Int) ($a12152900 (Array Int Int)))
    (=> (and ($main_sum132 (store $a12152889 $a2212895 $int2898) $a22162890 $a32172891 $a42182892 (store $a52192893 $a2212895 $int2899) $a62202894 (+ $a2212895 1) $i2222896 $x2232897 $a12152900 $a22162901 $a32172902 $a42182903 $a52192904 $a62202905 $a2212906 $i2222907 $x2232908)
             (<= (- 2147483648) $int2899)
             (<= $int2899 2147483647)
             (<= (- 2147483648) $int2898)
             (<= $int2898 2147483647)
             (< $a2212895 100000))
        ($main_sum132 $a12152889 $a22162890 $a32172891 $a42182892 $a52192893 $a62202894 $a2212895 $i2222896 $x2232897 $a12152900 $a22162901 $a32172902 $a42182903 $a52192904 $a62202905 $a2212906 $i2222907 $x2232908))))

; loop entry $main_inv133
(assert
  (forall (($a62202914 (Array Int Int)) ($a2212915 Int) ($a52192913 (Array Int Int)) ($a12152909 (Array Int Int)) ($a2216 (Array Int Int)) ($a42182912 (Array Int Int)) ($a5219 (Array Int Int)) ($a4218 (Array Int Int)) ($a1215 (Array Int Int)) ($a3217 (Array Int Int)) ($a32172911 (Array Int Int)) ($x223 Int) ($a6220 (Array Int Int)) ($a22162910 (Array Int Int)) ($x2232917 Int) ($i222 Int) ($i2222916 Int))
    (=> (and ($main_sum132 $a1215 $a2216 $a3217 $a4218 $a5219 $a6220 0 $i222 $x223 $a12152909 $a22162910 $a32172911 $a42182912 $a52192913 $a62202914 $a2212915 $i2222916 $x2232917))
        ($main_inv133 $a12152909 $a22162910 $a32172911 $a42182912 $a52192913 $a62202914 $a2212915 0 $x2232917))))

; loop term $main_sum133
(assert
  (forall (($a2212924 Int) ($a32172920 (Array Int Int)) ($i2222925 Int) ($a22162919 (Array Int Int)) ($a62202923 (Array Int Int)) ($x2232926 Int) ($a42182921 (Array Int Int)) ($a52192922 (Array Int Int)) ($a12152918 (Array Int Int)))
    (=> (and (not (< $i2222925 100000)))
        ($main_sum133 $a12152918 $a22162919 $a32172920 $a42182921 $a52192922 $a62202923 $a2212924 $i2222925 $x2232926 $a12152918 $a22162919 $a32172920 $a42182921 $a52192922 $a62202923 $a2212924 $i2222925 $x2232926))))

; forwards $main_inv133
(assert
  (forall (($a2212924 Int) ($a32172920 (Array Int Int)) ($i2222925 Int) ($a22162919 (Array Int Int)) ($a62202923 (Array Int Int)) ($x2232926 Int) ($a42182921 (Array Int Int)) ($a52192922 (Array Int Int)) ($a12152918 (Array Int Int)))
    (=> (and (< $i2222925 100000)
             ($main_inv133 $a12152918 $a22162919 $a32172920 $a42182921 $a52192922 $a62202923 $a2212924 $i2222925 $x2232926))
        ($main_inv133 $a12152918 (store $a22162919 $i2222925 (select $a12152918 $i2222925)) $a32172920 $a42182921 $a52192922 $a62202923 $a2212924 (+ $i2222925 1) $x2232926))))

; backwards $main_sum133
(assert
  (forall (($a2212924 Int) ($a32172920 (Array Int Int)) ($a22162928 (Array Int Int)) ($i2222925 Int) ($i2222934 Int) ($a32172929 (Array Int Int)) ($x2232926 Int) ($a42182921 (Array Int Int)) ($a52192922 (Array Int Int)) ($x2232935 Int) ($a22162919 (Array Int Int)) ($a2212933 Int) ($a12152927 (Array Int Int)) ($a62202923 (Array Int Int)) ($a52192931 (Array Int Int)) ($a42182930 (Array Int Int)) ($a12152918 (Array Int Int)) ($a62202932 (Array Int Int)))
    (=> (and ($main_sum133 $a12152918 (store $a22162919 $i2222925 (select $a12152918 $i2222925)) $a32172920 $a42182921 $a52192922 $a62202923 $a2212924 (+ $i2222925 1) $x2232926 $a12152927 $a22162928 $a32172929 $a42182930 $a52192931 $a62202932 $a2212933 $i2222934 $x2232935)
             (< $i2222925 100000))
        ($main_sum133 $a12152918 $a22162919 $a32172920 $a42182921 $a52192922 $a62202923 $a2212924 $i2222925 $x2232926 $a12152927 $a22162928 $a32172929 $a42182930 $a52192931 $a62202932 $a2212933 $i2222934 $x2232935))))

; loop entry $main_inv134
(assert
  (forall (($a62202941 (Array Int Int)) ($a62202914 (Array Int Int)) ($a42182939 (Array Int Int)) ($a52192913 (Array Int Int)) ($a52192940 (Array Int Int)) ($a2212942 Int) ($a2216 (Array Int Int)) ($a42182912 (Array Int Int)) ($a5219 (Array Int Int)) ($a4218 (Array Int Int)) ($a2212915 Int) ($a22162937 (Array Int Int)) ($x2232944 Int) ($a12152909 (Array Int Int)) ($a1215 (Array Int Int)) ($a3217 (Array Int Int)) ($a32172911 (Array Int Int)) ($x223 Int) ($i2222943 Int) ($a32172938 (Array Int Int)) ($a6220 (Array Int Int)) ($a22162910 (Array Int Int)) ($x2232917 Int) ($i222 Int) ($i2222916 Int) ($a12152936 (Array Int Int)))
    (=> (and ($main_sum133 $a12152909 $a22162910 $a32172911 $a42182912 $a52192913 $a62202914 $a2212915 0 $x2232917 $a12152936 $a22162937 $a32172938 $a42182939 $a52192940 $a62202941 $a2212942 $i2222943 $x2232944)
             ($main_sum132 $a1215 $a2216 $a3217 $a4218 $a5219 $a6220 0 $i222 $x223 $a12152909 $a22162910 $a32172911 $a42182912 $a52192913 $a62202914 $a2212915 $i2222916 $x2232917))
        ($main_inv134 $a12152936 $a22162937 $a32172938 $a42182939 $a52192940 $a62202941 $a2212942 0 $x2232944))))

; loop term $main_sum134
(assert
  (forall (($a42182948 (Array Int Int)) ($a12152945 (Array Int Int)) ($a2212951 Int) ($a52192949 (Array Int Int)) ($x2232953 Int) ($i2222952 Int) ($a32172947 (Array Int Int)) ($a62202950 (Array Int Int)) ($a22162946 (Array Int Int)))
    (=> (and (not (< $i2222952 100000)))
        ($main_sum134 $a12152945 $a22162946 $a32172947 $a42182948 $a52192949 $a62202950 $a2212951 $i2222952 $x2232953 $a12152945 $a22162946 $a32172947 $a42182948 $a52192949 $a62202950 $a2212951 $i2222952 $x2232953))))

; forwards $main_inv134
(assert
  (forall (($a42182948 (Array Int Int)) ($a12152945 (Array Int Int)) ($a2212951 Int) ($a52192949 (Array Int Int)) ($x2232953 Int) ($i2222952 Int) ($a32172947 (Array Int Int)) ($a62202950 (Array Int Int)) ($a22162946 (Array Int Int)))
    (=> (and (< $i2222952 100000)
             ($main_inv134 $a12152945 $a22162946 $a32172947 $a42182948 $a52192949 $a62202950 $a2212951 $i2222952 $x2232953))
        ($main_inv134 $a12152945 $a22162946 (store $a32172947 $i2222952 (select $a22162946 $i2222952)) $a42182948 $a52192949 $a62202950 $a2212951 (+ $i2222952 1) $x2232953))))

; backwards $main_sum134
(assert
  (forall (($a42182957 (Array Int Int)) ($a42182948 (Array Int Int)) ($a12152945 (Array Int Int)) ($x2232953 Int) ($a62202959 (Array Int Int)) ($x2232962 Int) ($a22162955 (Array Int Int)) ($a12152954 (Array Int Int)) ($i2222952 Int) ($a52192958 (Array Int Int)) ($a2212960 Int) ($a32172947 (Array Int Int)) ($i2222961 Int) ($a2212951 Int) ($a52192949 (Array Int Int)) ($a32172956 (Array Int Int)) ($a62202950 (Array Int Int)) ($a22162946 (Array Int Int)))
    (=> (and ($main_sum134 $a12152945 $a22162946 (store $a32172947 $i2222952 (select $a22162946 $i2222952)) $a42182948 $a52192949 $a62202950 $a2212951 (+ $i2222952 1) $x2232953 $a12152954 $a22162955 $a32172956 $a42182957 $a52192958 $a62202959 $a2212960 $i2222961 $x2232962)
             (< $i2222952 100000))
        ($main_sum134 $a12152945 $a22162946 $a32172947 $a42182948 $a52192949 $a62202950 $a2212951 $i2222952 $x2232953 $a12152954 $a22162955 $a32172956 $a42182957 $a52192958 $a62202959 $a2212960 $i2222961 $x2232962))))

; loop entry $main_inv135
(assert
  (forall (($a62202914 (Array Int Int)) ($a52192967 (Array Int Int)) ($a12152963 (Array Int Int)) ($a42182939 (Array Int Int)) ($a52192913 (Array Int Int)) ($a42182966 (Array Int Int)) ($a2212942 Int) ($a62202968 (Array Int Int)) ($a2216 (Array Int Int)) ($a42182912 (Array Int Int)) ($a62202941 (Array Int Int)) ($a32172965 (Array Int Int)) ($a5219 (Array Int Int)) ($a4218 (Array Int Int)) ($a2212969 Int) ($a22162964 (Array Int Int)) ($a2212915 Int) ($a22162937 (Array Int Int)) ($a52192940 (Array Int Int)) ($x2232971 Int) ($x2232944 Int) ($a12152909 (Array Int Int)) ($a1215 (Array Int Int)) ($a3217 (Array Int Int)) ($a32172911 (Array Int Int)) ($x223 Int) ($i2222943 Int) ($a32172938 (Array Int Int)) ($i2222970 Int) ($a6220 (Array Int Int)) ($a22162910 (Array Int Int)) ($x2232917 Int) ($i222 Int) ($i2222916 Int) ($a12152936 (Array Int Int)))
    (=> (and ($main_sum134 $a12152936 $a22162937 $a32172938 $a42182939 $a52192940 $a62202941 $a2212942 0 $x2232944 $a12152963 $a22162964 $a32172965 $a42182966 $a52192967 $a62202968 $a2212969 $i2222970 $x2232971)
             ($main_sum133 $a12152909 $a22162910 $a32172911 $a42182912 $a52192913 $a62202914 $a2212915 0 $x2232917 $a12152936 $a22162937 $a32172938 $a42182939 $a52192940 $a62202941 $a2212942 $i2222943 $x2232944)
             ($main_sum132 $a1215 $a2216 $a3217 $a4218 $a5219 $a6220 0 $i222 $x223 $a12152909 $a22162910 $a32172911 $a42182912 $a52192913 $a62202914 $a2212915 $i2222916 $x2232917))
        ($main_inv135 $a12152963 $a22162964 $a32172965 $a42182966 $a52192967 $a62202968 $a2212969 0 $x2232971))))

; loop term $main_sum135
(assert
  (forall (($a2212978 Int) ($a42182975 (Array Int Int)) ($a12152972 (Array Int Int)) ($a32172974 (Array Int Int)) ($a62202977 (Array Int Int)) ($a52192976 (Array Int Int)) ($x2232980 Int) ($a22162973 (Array Int Int)) ($i2222979 Int))
    (=> (and (not (< $i2222979 100000)))
        ($main_sum135 $a12152972 $a22162973 $a32172974 $a42182975 $a52192976 $a62202977 $a2212978 $i2222979 $x2232980 $a12152972 $a22162973 $a32172974 $a42182975 $a52192976 $a62202977 $a2212978 $i2222979 $x2232980))))

; forwards $main_inv135
(assert
  (forall (($a2212978 Int) ($a42182975 (Array Int Int)) ($a12152972 (Array Int Int)) ($a32172974 (Array Int Int)) ($a62202977 (Array Int Int)) ($a52192976 (Array Int Int)) ($x2232980 Int) ($a22162973 (Array Int Int)) ($i2222979 Int))
    (=> (and (< $i2222979 100000)
             ($main_inv135 $a12152972 $a22162973 $a32172974 $a42182975 $a52192976 $a62202977 $a2212978 $i2222979 $x2232980))
        ($main_inv135 $a12152972 $a22162973 $a32172974 (store $a42182975 $i2222979 (select $a32172974 $i2222979)) $a52192976 $a62202977 $a2212978 (+ $i2222979 1) $x2232980))))

; backwards $main_sum135
(assert
  (forall (($a42182975 (Array Int Int)) ($x2232989 Int) ($a32172983 (Array Int Int)) ($a12152972 (Array Int Int)) ($a52192985 (Array Int Int)) ($a2212978 Int) ($a12152981 (Array Int Int)) ($a62202986 (Array Int Int)) ($a52192976 (Array Int Int)) ($x2232980 Int) ($a42182984 (Array Int Int)) ($a32172974 (Array Int Int)) ($a2212987 Int) ($a22162973 (Array Int Int)) ($i2222979 Int) ($a62202977 (Array Int Int)) ($i2222988 Int) ($a22162982 (Array Int Int)))
    (=> (and ($main_sum135 $a12152972 $a22162973 $a32172974 (store $a42182975 $i2222979 (select $a32172974 $i2222979)) $a52192976 $a62202977 $a2212978 (+ $i2222979 1) $x2232980 $a12152981 $a22162982 $a32172983 $a42182984 $a52192985 $a62202986 $a2212987 $i2222988 $x2232989)
             (< $i2222979 100000))
        ($main_sum135 $a12152972 $a22162973 $a32172974 $a42182975 $a52192976 $a62202977 $a2212978 $i2222979 $x2232980 $a12152981 $a22162982 $a32172983 $a42182984 $a52192985 $a62202986 $a2212987 $i2222988 $x2232989))))

; loop entry $main_inv136
(assert
  (forall (($a62202914 (Array Int Int)) ($a52192967 (Array Int Int)) ($a12152963 (Array Int Int)) ($a42182939 (Array Int Int)) ($a42182966 (Array Int Int)) ($a2212942 Int) ($a2216 (Array Int Int)) ($a42182912 (Array Int Int)) ($a62202941 (Array Int Int)) ($a32172965 (Array Int Int)) ($a5219 (Array Int Int)) ($a4218 (Array Int Int)) ($a2212969 Int) ($a22162964 (Array Int Int)) ($a2212915 Int) ($a42182993 (Array Int Int)) ($a22162937 (Array Int Int)) ($a52192913 (Array Int Int)) ($a52192994 (Array Int Int)) ($a52192940 (Array Int Int)) ($x2232971 Int) ($x2232944 Int) ($a12152909 (Array Int Int)) ($a1215 (Array Int Int)) ($a62202995 (Array Int Int)) ($a3217 (Array Int Int)) ($a62202968 (Array Int Int)) ($a2212996 Int) ($x2232998 Int) ($a22162991 (Array Int Int)) ($a32172911 (Array Int Int)) ($x223 Int) ($i2222943 Int) ($a32172938 (Array Int Int)) ($i2222970 Int) ($a6220 (Array Int Int)) ($a12152990 (Array Int Int)) ($a22162910 (Array Int Int)) ($x2232917 Int) ($a32172992 (Array Int Int)) ($i222 Int) ($i2222916 Int) ($a12152936 (Array Int Int)) ($i2222997 Int))
    (=> (and ($main_sum135 $a12152963 $a22162964 $a32172965 $a42182966 $a52192967 $a62202968 $a2212969 0 $x2232971 $a12152990 $a22162991 $a32172992 $a42182993 $a52192994 $a62202995 $a2212996 $i2222997 $x2232998)
             ($main_sum134 $a12152936 $a22162937 $a32172938 $a42182939 $a52192940 $a62202941 $a2212942 0 $x2232944 $a12152963 $a22162964 $a32172965 $a42182966 $a52192967 $a62202968 $a2212969 $i2222970 $x2232971)
             ($main_sum133 $a12152909 $a22162910 $a32172911 $a42182912 $a52192913 $a62202914 $a2212915 0 $x2232917 $a12152936 $a22162937 $a32172938 $a42182939 $a52192940 $a62202941 $a2212942 $i2222943 $x2232944)
             ($main_sum132 $a1215 $a2216 $a3217 $a4218 $a5219 $a6220 0 $i222 $x223 $a12152909 $a22162910 $a32172911 $a42182912 $a52192913 $a62202914 $a2212915 $i2222916 $x2232917))
        ($main_inv136 $a12152990 $a22162991 $a32172992 $a42182993 $a52192994 $a62202995 $a2212996 0 $x2232998))))

; loop term $main_sum136
(assert
  (forall (($a52193003 (Array Int Int)) ($a2213005 Int) ($a12152999 (Array Int Int)) ($a22163000 (Array Int Int)) ($a32173001 (Array Int Int)) ($a62203004 (Array Int Int)) ($a42183002 (Array Int Int)) ($x2233007 Int) ($i2223006 Int))
    (=> (and (not (< $i2223006 100000)))
        ($main_sum136 $a12152999 $a22163000 $a32173001 $a42183002 $a52193003 $a62203004 $a2213005 $i2223006 $x2233007 $a12152999 $a22163000 $a32173001 $a42183002 $a52193003 $a62203004 $a2213005 $i2223006 $x2233007))))

; forwards $main_inv136
(assert
  (forall (($a52193003 (Array Int Int)) ($a2213005 Int) ($a12152999 (Array Int Int)) ($a22163000 (Array Int Int)) ($a32173001 (Array Int Int)) ($a62203004 (Array Int Int)) ($a42183002 (Array Int Int)) ($x2233007 Int) ($i2223006 Int))
    (=> (and (< $i2223006 100000)
             ($main_inv136 $a12152999 $a22163000 $a32173001 $a42183002 $a52193003 $a62203004 $a2213005 $i2223006 $x2233007))
        ($main_inv136 $a12152999 $a22163000 $a32173001 $a42183002 $a52193003 (store $a62203004 $i2223006 (select $a42183002 $i2223006)) $a2213005 (+ $i2223006 1) $x2233007))))

; backwards $main_sum136
(assert
  (forall (($a42183011 (Array Int Int)) ($a32173010 (Array Int Int)) ($i2223015 Int) ($a62203004 (Array Int Int)) ($a42183002 (Array Int Int)) ($x2233007 Int) ($i2223006 Int) ($a52193012 (Array Int Int)) ($a52193003 (Array Int Int)) ($x2233016 Int) ($a2213005 Int) ($a22163009 (Array Int Int)) ($a12152999 (Array Int Int)) ($a2213014 Int) ($a22163000 (Array Int Int)) ($a62203013 (Array Int Int)) ($a32173001 (Array Int Int)) ($a12153008 (Array Int Int)))
    (=> (and ($main_sum136 $a12152999 $a22163000 $a32173001 $a42183002 $a52193003 (store $a62203004 $i2223006 (select $a42183002 $i2223006)) $a2213005 (+ $i2223006 1) $x2233007 $a12153008 $a22163009 $a32173010 $a42183011 $a52193012 $a62203013 $a2213014 $i2223015 $x2233016)
             (< $i2223006 100000))
        ($main_sum136 $a12152999 $a22163000 $a32173001 $a42183002 $a52193003 $a62203004 $a2213005 $i2223006 $x2233007 $a12153008 $a22163009 $a32173010 $a42183011 $a52193012 $a62203013 $a2213014 $i2223015 $x2233016))))

; loop entry $main_inv137
(assert
  (forall (($a52192967 (Array Int Int)) ($a12152963 (Array Int Int)) ($a42182939 (Array Int Int)) ($a2212942 Int) ($a32173019 (Array Int Int)) ($a2216 (Array Int Int)) ($a42182912 (Array Int Int)) ($a62202941 (Array Int Int)) ($a32172965 (Array Int Int)) ($x2233025 Int) ($a62202914 (Array Int Int)) ($a5219 (Array Int Int)) ($a4218 (Array Int Int)) ($a12153017 (Array Int Int)) ($a2213023 Int) ($a22162964 (Array Int Int)) ($a2212969 Int) ($a52193021 (Array Int Int)) ($a2212915 Int) ($a42182993 (Array Int Int)) ($a62203022 (Array Int Int)) ($a22162937 (Array Int Int)) ($a52192913 (Array Int Int)) ($a52192994 (Array Int Int)) ($a22163018 (Array Int Int)) ($a42182966 (Array Int Int)) ($a52192940 (Array Int Int)) ($x2232971 Int) ($x2232944 Int) ($a12152909 (Array Int Int)) ($a1215 (Array Int Int)) ($a62202995 (Array Int Int)) ($a42183020 (Array Int Int)) ($a3217 (Array Int Int)) ($a62202968 (Array Int Int)) ($a2212996 Int) ($x2232998 Int) ($a22162991 (Array Int Int)) ($a32172911 (Array Int Int)) ($i2223024 Int) ($x223 Int) ($i2222943 Int) ($a32172938 (Array Int Int)) ($i2222970 Int) ($a6220 (Array Int Int)) ($a12152990 (Array Int Int)) ($a22162910 (Array Int Int)) ($x2232917 Int) ($a32172992 (Array Int Int)) ($i222 Int) ($i2222916 Int) ($a12152936 (Array Int Int)) ($i2222997 Int))
    (=> (and ($main_sum136 $a12152990 $a22162991 $a32172992 $a42182993 $a52192994 $a62202995 $a2212996 0 $x2232998 $a12153017 $a22163018 $a32173019 $a42183020 $a52193021 $a62203022 $a2213023 $i2223024 $x2233025)
             ($main_sum135 $a12152963 $a22162964 $a32172965 $a42182966 $a52192967 $a62202968 $a2212969 0 $x2232971 $a12152990 $a22162991 $a32172992 $a42182993 $a52192994 $a62202995 $a2212996 $i2222997 $x2232998)
             ($main_sum134 $a12152936 $a22162937 $a32172938 $a42182939 $a52192940 $a62202941 $a2212942 0 $x2232944 $a12152963 $a22162964 $a32172965 $a42182966 $a52192967 $a62202968 $a2212969 $i2222970 $x2232971)
             ($main_sum133 $a12152909 $a22162910 $a32172911 $a42182912 $a52192913 $a62202914 $a2212915 0 $x2232917 $a12152936 $a22162937 $a32172938 $a42182939 $a52192940 $a62202941 $a2212942 $i2222943 $x2232944)
             ($main_sum132 $a1215 $a2216 $a3217 $a4218 $a5219 $a6220 0 $i222 $x223 $a12152909 $a22162910 $a32172911 $a42182912 $a52192913 $a62202914 $a2212915 $i2222916 $x2232917))
        ($main_inv137 $a12153017 $a22163018 $a32173019 $a42183020 $a52193021 $a62203022 $a2213023 0 $x2233025))))

; loop term $main_sum137
(assert
  (forall (($a62203031 (Array Int Int)) ($a12153026 (Array Int Int)) ($a22163027 (Array Int Int)) ($i2223033 Int) ($a2213032 Int) ($x2233034 Int) ($a42183029 (Array Int Int)) ($a32173028 (Array Int Int)) ($a52193030 (Array Int Int)))
    (=> (and (not (< $i2223033 100000)))
        ($main_sum137 $a12153026 $a22163027 $a32173028 $a42183029 $a52193030 $a62203031 $a2213032 $i2223033 $x2233034 $a12153026 $a22163027 $a32173028 $a42183029 $a52193030 $a62203031 $a2213032 $i2223033 $x2233034))))

; forwards $main_inv137
(assert
  (forall (($a62203031 (Array Int Int)) ($a12153026 (Array Int Int)) ($a22163027 (Array Int Int)) ($i2223033 Int) ($a2213032 Int) ($x2233034 Int) ($a42183029 (Array Int Int)) ($a32173028 (Array Int Int)) ($a52193030 (Array Int Int)))
    (=> (and (< $i2223033 100000)
             ($main_inv137 $a12153026 $a22163027 $a32173028 $a42183029 $a52193030 $a62203031 $a2213032 $i2223033 $x2233034))
        ($main_inv137 $a12153026 $a22163027 $a32173028 $a42183029 $a52193030 (store $a62203031 $i2223033 (select $a52193030 $i2223033)) $a2213032 (+ $i2223033 1) $x2233034))))

; backwards $main_sum137
(assert
  (forall (($a62203031 (Array Int Int)) ($a12153026 (Array Int Int)) ($x2233043 Int) ($a22163027 (Array Int Int)) ($i2223033 Int) ($a42183038 (Array Int Int)) ($x2233034 Int) ($a12153035 (Array Int Int)) ($a62203040 (Array Int Int)) ($a42183029 (Array Int Int)) ($a32173028 (Array Int Int)) ($a32173037 (Array Int Int)) ($i2223042 Int) ($a22163036 (Array Int Int)) ($a2213032 Int) ($a2213041 Int) ($a52193030 (Array Int Int)) ($a52193039 (Array Int Int)))
    (=> (and ($main_sum137 $a12153026 $a22163027 $a32173028 $a42183029 $a52193030 (store $a62203031 $i2223033 (select $a52193030 $i2223033)) $a2213032 (+ $i2223033 1) $x2233034 $a12153035 $a22163036 $a32173037 $a42183038 $a52193039 $a62203040 $a2213041 $i2223042 $x2233043)
             (< $i2223033 100000))
        ($main_sum137 $a12153026 $a22163027 $a32173028 $a42183029 $a52193030 $a62203031 $a2213032 $i2223033 $x2233034 $a12153035 $a22163036 $a32173037 $a42183038 $a52193039 $a62203040 $a2213041 $i2223042 $x2233043))))

; loop entry $main_inv138
(assert
  (forall (($a52192967 (Array Int Int)) ($a12152963 (Array Int Int)) ($a2213050 Int) ($a32173019 (Array Int Int)) ($a2216 (Array Int Int)) ($a42182912 (Array Int Int)) ($a62202941 (Array Int Int)) ($a32172965 (Array Int Int)) ($x2233025 Int) ($a62202914 (Array Int Int)) ($a52193048 (Array Int Int)) ($a5219 (Array Int Int)) ($a4218 (Array Int Int)) ($a12153017 (Array Int Int)) ($a2213023 Int) ($a42183047 (Array Int Int)) ($a22162964 (Array Int Int)) ($a2212969 Int) ($a52193021 (Array Int Int)) ($a2212915 Int) ($a62203049 (Array Int Int)) ($a42182993 (Array Int Int)) ($a62203022 (Array Int Int)) ($a22162937 (Array Int Int)) ($a42182939 (Array Int Int)) ($x2233052 Int) ($a52192913 (Array Int Int)) ($a52192994 (Array Int Int)) ($a32173046 (Array Int Int)) ($a22163018 (Array Int Int)) ($a42182966 (Array Int Int)) ($a52192940 (Array Int Int)) ($x2232971 Int) ($x2232944 Int) ($a12152909 (Array Int Int)) ($a2212942 Int) ($i2223051 Int) ($a1215 (Array Int Int)) ($a62202995 (Array Int Int)) ($a42183020 (Array Int Int)) ($a3217 (Array Int Int)) ($a62202968 (Array Int Int)) ($a12153044 (Array Int Int)) ($a2212996 Int) ($x2232998 Int) ($a22162991 (Array Int Int)) ($a32172911 (Array Int Int)) ($i2223024 Int) ($x223 Int) ($a22163045 (Array Int Int)) ($i2222943 Int) ($a32172938 (Array Int Int)) ($i2222970 Int) ($a6220 (Array Int Int)) ($a12152990 (Array Int Int)) ($a22162910 (Array Int Int)) ($x2232917 Int) ($a32172992 (Array Int Int)) ($i222 Int) ($i2222916 Int) ($a12152936 (Array Int Int)) ($i2222997 Int))
    (=> (and ($main_sum137 $a12153017 $a22163018 $a32173019 $a42183020 $a52193021 $a62203022 $a2213023 0 $x2233025 $a12153044 $a22163045 $a32173046 $a42183047 $a52193048 $a62203049 $a2213050 $i2223051 $x2233052)
             ($main_sum136 $a12152990 $a22162991 $a32172992 $a42182993 $a52192994 $a62202995 $a2212996 0 $x2232998 $a12153017 $a22163018 $a32173019 $a42183020 $a52193021 $a62203022 $a2213023 $i2223024 $x2233025)
             ($main_sum135 $a12152963 $a22162964 $a32172965 $a42182966 $a52192967 $a62202968 $a2212969 0 $x2232971 $a12152990 $a22162991 $a32172992 $a42182993 $a52192994 $a62202995 $a2212996 $i2222997 $x2232998)
             ($main_sum134 $a12152936 $a22162937 $a32172938 $a42182939 $a52192940 $a62202941 $a2212942 0 $x2232944 $a12152963 $a22162964 $a32172965 $a42182966 $a52192967 $a62202968 $a2212969 $i2222970 $x2232971)
             ($main_sum133 $a12152909 $a22162910 $a32172911 $a42182912 $a52192913 $a62202914 $a2212915 0 $x2232917 $a12152936 $a22162937 $a32172938 $a42182939 $a52192940 $a62202941 $a2212942 $i2222943 $x2232944)
             ($main_sum132 $a1215 $a2216 $a3217 $a4218 $a5219 $a6220 0 $i222 $x223 $a12152909 $a22162910 $a32172911 $a42182912 $a52192913 $a62202914 $a2212915 $i2222916 $x2232917))
        ($main_inv138 $a12153044 $a22163045 $a32173046 $a42183047 $a52193048 $a62203049 $a2213050 $i2223051 0))))

; loop term $main_sum138
(assert
  (forall (($a62203058 (Array Int Int)) ($a22163054 (Array Int Int)) ($a52193057 (Array Int Int)) ($a2213059 Int) ($x2233061 Int) ($a32173055 (Array Int Int)) ($i2223060 Int) ($a42183056 (Array Int Int)) ($a12153053 (Array Int Int)))
    (=> (and (not (< $x2233061 100000)))
        ($main_sum138 $a12153053 $a22163054 $a32173055 $a42183056 $a52193057 $a62203058 $a2213059 $i2223060 $x2233061 $a12153053 $a22163054 $a32173055 $a42183056 $a52193057 $a62203058 $a2213059 $i2223060 $x2233061))))

; __VERIFIER_assert precondition
(assert
  (forall (($a62203058 (Array Int Int)) ($a22163054 (Array Int Int)) ($a52193057 (Array Int Int)) ($a2213059 Int) ($x2233061 Int) ($a32173055 (Array Int Int)) ($i2223060 Int) ($a42183056 (Array Int Int)) ($a12153053 (Array Int Int)))
    (=> (and (< $x2233061 100000)
             ($main_inv138 $a12153053 $a22163054 $a32173055 $a42183056 $a52193057 $a62203058 $a2213059 $i2223060 $x2233061))
        ($__VERIFIER_assert_pre (ite (= (select $a12153053 $x2233061) (select $a62203058 $x2233061)) 1 0)))))

; forwards $main_inv138
(assert
  (forall (($a62203058 (Array Int Int)) ($a22163054 (Array Int Int)) ($a52193057 (Array Int Int)) ($a2213059 Int) ($x2233061 Int) ($a32173055 (Array Int Int)) ($i2223060 Int) ($a42183056 (Array Int Int)) ($a12153053 (Array Int Int)))
    (=> (and (__VERIFIER_assert (ite (= (select $a12153053 $x2233061) (select $a62203058 $x2233061)) 1 0))
             (< $x2233061 100000)
             ($main_inv138 $a12153053 $a22163054 $a32173055 $a42183056 $a52193057 $a62203058 $a2213059 $i2223060 $x2233061))
        ($main_inv138 $a12153053 $a22163054 $a32173055 $a42183056 $a52193057 $a62203058 $a2213059 $i2223060 (+ $x2233061 1)))))

; backwards $main_sum138
(assert
  (forall (($i2223069 Int) ($a2213068 Int) ($a62203058 (Array Int Int)) ($a52193066 (Array Int Int)) ($x2233070 Int) ($a22163054 (Array Int Int)) ($a2213059 Int) ($a42183065 (Array Int Int)) ($a32173055 (Array Int Int)) ($i2223060 Int) ($a42183056 (Array Int Int)) ($a62203067 (Array Int Int)) ($a52193057 (Array Int Int)) ($a22163063 (Array Int Int)) ($a32173064 (Array Int Int)) ($x2233061 Int) ($a12153053 (Array Int Int)) ($a12153062 (Array Int Int)))
    (=> (and ($main_sum138 $a12153053 $a22163054 $a32173055 $a42183056 $a52193057 $a62203058 $a2213059 $i2223060 (+ $x2233061 1) $a12153062 $a22163063 $a32173064 $a42183065 $a52193066 $a62203067 $a2213068 $i2223069 $x2233070)
             (__VERIFIER_assert (ite (= (select $a12153053 $x2233061) (select $a62203058 $x2233061)) 1 0))
             (< $x2233061 100000))
        ($main_sum138 $a12153053 $a22163054 $a32173055 $a42183056 $a52193057 $a62203058 $a2213059 $i2223060 $x2233061 $a12153062 $a22163063 $a32173064 $a42183065 $a52193066 $a62203067 $a2213068 $i2223069 $x2233070))))

(check-sat)
